
Gurobi 8.1.1 (win64) logging started 09/10/19 09:16:22

Changed value of parameter logfile to solver.log
   Prev: gurobi.log  Default: 
Parameter BarConvTol unchanged
   Value: 1e-08  Min: 0.0  Max: 1.0  Default: 1e-08
Changed value of parameter crossover to 0
   Prev: -1  Min: -1  Max: 5  Default: -1
Parameter FeasibilityTol unchanged
   Value: 1e-06  Min: 1e-09  Max: 0.01  Default: 1e-06
Optimize a model with 768 rows, 837 columns and 1763 nonzeros
Coefficient statistics:
  Matrix range     [1e-03, 2e+04]
  Objective range  [1e-02, 3e+05]
  Bounds range     [9e+00, 4e+05]
  RHS range        [1e+00, 8e+07]
Presolve removed 519 rows and 561 columns
Presolve time: 0.00s
Presolved: 249 rows, 276 columns, 750 nonzeros
Ordering time: 0.00s

Barrier statistics:
 Free vars  : 46
 AA' NZ     : 6.480e+02
 Factor NZ  : 2.477e+03
 Factor Ops : 2.834e+04 (less than 1 second per iteration)
 Threads    : 1

                  Objective                Residual
Iter       Primal          Dual         Primal    Dual     Compl     Time
   0   5.38094935e+11 -2.11166368e+09  1.10e+06 0.00e+00  3.12e+09     0s
   1   1.42009870e+11 -1.96268183e+10  1.30e+05 1.08e-03  4.81e+08     0s
   2   5.28676279e+10  1.86595343e+08  3.37e+04 8.52e-04  1.47e+08     0s
   3   1.90047124e+10  1.05416713e+10  5.40e+02 7.46e-04  2.18e+07     0s
   4   1.42922211e+10  1.26814225e+10  8.83e+01 7.92e-05  3.84e+06     0s
   5   1.35313281e+10  1.30217985e+10  2.26e+01 1.25e-04  1.15e+06     0s
   6   1.34289193e+10  1.31787879e+10  1.29e+01 2.55e-04  5.57e+05     0s
   7   1.33109505e+10  1.31859028e+10  3.94e+00 2.25e-04  2.71e+05     0s
   8   1.32557752e+10  1.32509031e+10  8.32e-02 1.37e-04  1.03e+04     0s
   9   1.32538531e+10  1.32538481e+10  3.11e-08 8.02e-07  1.03e+01     0s
  10   1.32538511e+10  1.32538510e+10  1.82e-12 1.43e-07  1.26e-01     0s
  11   1.32538510e+10  1.32538509e+10  1.82e-12 1.55e-08  3.15e-01     0s
  12   1.32538510e+10  1.32538510e+10  1.82e-12 2.87e-09  2.13e-02     0s
  13   1.32538510e+10  1.32538510e+10  1.82e-12 4.67e-09  6.87e-04     0s
  14   1.32538510e+10  1.32538510e+10  1.82e-12 1.06e-09  1.36e-06     0s
  15   1.32538510e+10  1.32538510e+10  1.82e-12 1.31e-10  2.82e-11     0s

Barrier solved model in 15 iterations and 0.00 seconds
Optimal objective 1.32538510e+10


Gurobi 8.1.1 (win64) logging started 09/10/19 11:29:19

Changed value of parameter logfile to solver.log
   Prev: gurobi.log  Default: 
Parameter BarConvTol unchanged
   Value: 1e-08  Min: 0.0  Max: 1.0  Default: 1e-08
Changed value of parameter crossover to 0
   Prev: -1  Min: -1  Max: 5  Default: -1
Parameter FeasibilityTol unchanged
   Value: 1e-06  Min: 1e-09  Max: 0.01  Default: 1e-06
Optimize a model with 430 rows, 399 columns and 892 nonzeros
Coefficient statistics:
  Matrix range     [1e-03, 2e+04]
  Objective range  [1e-02, 3e+05]
  Bounds range     [2e+03, 4e+05]
  RHS range        [1e+00, 3e+07]
Presolve removed 314 rows and 283 columns
Presolve time: 0.00s
Presolved: 116 rows, 116 columns, 420 nonzeros
Ordering time: 0.00s

Barrier statistics:
 Free vars  : 32
 AA' NZ     : 5.480e+02
 Factor NZ  : 1.159e+03
 Factor Ops : 1.291e+04 (less than 1 second per iteration)
 Threads    : 1

                  Objective                Residual
Iter       Primal          Dual         Primal    Dual     Compl     Time
   0   1.62401703e+11  1.64018558e+10  2.58e+06 1.87e-04  9.05e+05     0s
   1   2.50451478e+10  1.63961672e+10  1.46e+05 4.64e-03  7.81e+04     0s
   2   1.67226577e+10  1.64007763e+10  6.17e+02 3.41e-03  7.01e+03     0s
   3   1.64018558e+10  1.64017947e+10  9.09e-09 3.26e-04  3.25e+02     0s
   4   1.64018558e+10  1.64018558e+10  4.25e-09 4.15e-05  4.52e-01     0s
   5   1.64018558e+10  1.64018558e+10  2.04e-10 2.76e-05  1.92e-01     0s
   6   1.64018558e+10  1.64018558e+10  7.28e-12 5.70e-07  2.43e-03     0s
   7   1.64018558e+10  1.64018558e+10  3.64e-12 9.09e-10  4.27e-08     0s
   8   1.64018558e+10  1.64018558e+10  3.64e-12 8.35e-12  4.27e-11     0s

Barrier solved model in 8 iterations and 0.00 seconds
Optimal objective 1.64018558e+10


Gurobi 8.1.1 (win64) logging started 09/10/19 12:52:39

Changed value of parameter logfile to solver.log
   Prev: gurobi.log  Default: 
Parameter BarConvTol unchanged
   Value: 1e-08  Min: 0.0  Max: 1.0  Default: 1e-08
Changed value of parameter crossover to 0
   Prev: -1  Min: -1  Max: 5  Default: -1
Parameter FeasibilityTol unchanged
   Value: 1e-06  Min: 1e-09  Max: 0.01  Default: 1e-06
Optimize a model with 430 rows, 399 columns and 892 nonzeros
Coefficient statistics:
  Matrix range     [1e-03, 2e+04]
  Objective range  [1e-02, 3e+05]
  Bounds range     [2e+03, 4e+05]
  RHS range        [1e+00, 3e+07]
Presolve removed 314 rows and 283 columns
Presolve time: 0.00s
Presolved: 116 rows, 116 columns, 420 nonzeros
Ordering time: 0.00s

Barrier statistics:
 Free vars  : 32
 AA' NZ     : 5.480e+02
 Factor NZ  : 1.159e+03
 Factor Ops : 1.291e+04 (less than 1 second per iteration)
 Threads    : 1

                  Objective                Residual
Iter       Primal          Dual         Primal    Dual     Compl     Time
   0   1.62401703e+11  1.64018558e+10  2.58e+06 1.87e-04  9.05e+05     0s
   1   2.50451478e+10  1.63961672e+10  1.46e+05 4.64e-03  7.81e+04     0s
   2   1.67226577e+10  1.64007763e+10  6.17e+02 3.41e-03  7.01e+03     0s
   3   1.64018558e+10  1.64017947e+10  9.09e-09 3.26e-04  3.25e+02     0s
   4   1.64018558e+10  1.64018558e+10  4.25e-09 4.15e-05  4.52e-01     0s
   5   1.64018558e+10  1.64018558e+10  2.04e-10 2.76e-05  1.92e-01     0s
   6   1.64018558e+10  1.64018558e+10  7.28e-12 5.70e-07  2.43e-03     0s
   7   1.64018558e+10  1.64018558e+10  3.64e-12 9.09e-10  4.27e-08     0s
   8   1.64018558e+10  1.64018558e+10  3.64e-12 8.35e-12  4.27e-11     0s

Barrier solved model in 8 iterations and 0.02 seconds
Optimal objective 1.64018558e+10


Gurobi 8.1.1 (win64) logging started 09/10/19 12:56:09

Changed value of parameter logfile to solver.log
   Prev: gurobi.log  Default: 
Parameter BarConvTol unchanged
   Value: 1e-08  Min: 0.0  Max: 1.0  Default: 1e-08
Changed value of parameter crossover to 0
   Prev: -1  Min: -1  Max: 5  Default: -1
Parameter FeasibilityTol unchanged
   Value: 1e-06  Min: 1e-09  Max: 0.01  Default: 1e-06
Optimize a model with 430 rows, 399 columns and 892 nonzeros
Coefficient statistics:
  Matrix range     [1e-03, 2e+04]
  Objective range  [1e-02, 3e+05]
  Bounds range     [2e+03, 4e+05]
  RHS range        [1e+00, 3e+07]
Presolve removed 314 rows and 283 columns
Presolve time: 0.00s
Presolved: 116 rows, 116 columns, 420 nonzeros
Ordering time: 0.00s

Barrier statistics:
 Free vars  : 32
 AA' NZ     : 5.480e+02
 Factor NZ  : 1.159e+03
 Factor Ops : 1.291e+04 (less than 1 second per iteration)
 Threads    : 1

                  Objective                Residual
Iter       Primal          Dual         Primal    Dual     Compl     Time
   0   1.62401703e+11  1.64018558e+10  2.58e+06 1.87e-04  9.05e+05     0s
   1   2.50451478e+10  1.63961672e+10  1.46e+05 4.64e-03  7.81e+04     0s
   2   1.67226577e+10  1.64007763e+10  6.17e+02 3.41e-03  7.01e+03     0s
   3   1.64018558e+10  1.64017947e+10  9.09e-09 3.26e-04  3.25e+02     0s
   4   1.64018558e+10  1.64018558e+10  4.25e-09 4.15e-05  4.52e-01     0s
   5   1.64018558e+10  1.64018558e+10  2.04e-10 2.76e-05  1.92e-01     0s
   6   1.64018558e+10  1.64018558e+10  7.28e-12 5.70e-07  2.43e-03     0s
   7   1.64018558e+10  1.64018558e+10  3.64e-12 9.09e-10  4.27e-08     0s
   8   1.64018558e+10  1.64018558e+10  3.64e-12 8.35e-12  4.27e-11     0s

Barrier solved model in 8 iterations and 0.02 seconds
Optimal objective 1.64018558e+10


Gurobi 8.1.1 (win64) logging started 09/10/19 12:59:22

Changed value of parameter logfile to solver.log
   Prev: gurobi.log  Default: 
Parameter BarConvTol unchanged
   Value: 1e-08  Min: 0.0  Max: 1.0  Default: 1e-08
Changed value of parameter crossover to 0
   Prev: -1  Min: -1  Max: 5  Default: -1
Parameter FeasibilityTol unchanged
   Value: 1e-06  Min: 1e-09  Max: 0.01  Default: 1e-06
Optimize a model with 430 rows, 399 columns and 892 nonzeros
Coefficient statistics:
  Matrix range     [1e-03, 2e+04]
  Objective range  [1e-02, 3e+05]
  Bounds range     [2e+03, 4e+05]
  RHS range        [1e+00, 3e+07]
Presolve removed 314 rows and 283 columns
Presolve time: 0.02s
Presolved: 116 rows, 116 columns, 420 nonzeros
Ordering time: 0.00s

Barrier statistics:
 Free vars  : 32
 AA' NZ     : 5.480e+02
 Factor NZ  : 1.159e+03
 Factor Ops : 1.291e+04 (less than 1 second per iteration)
 Threads    : 1

                  Objective                Residual
Iter       Primal          Dual         Primal    Dual     Compl     Time
   0   1.62401703e+11  1.64018558e+10  2.58e+06 1.87e-04  9.05e+05     0s
   1   2.50451478e+10  1.63961672e+10  1.46e+05 4.64e-03  7.81e+04     0s
   2   1.67226577e+10  1.64007763e+10  6.17e+02 3.41e-03  7.01e+03     0s
   3   1.64018558e+10  1.64017947e+10  9.09e-09 3.26e-04  3.25e+02     0s
   4   1.64018558e+10  1.64018558e+10  4.25e-09 4.15e-05  4.52e-01     0s
   5   1.64018558e+10  1.64018558e+10  2.04e-10 2.76e-05  1.92e-01     0s
   6   1.64018558e+10  1.64018558e+10  7.28e-12 5.70e-07  2.43e-03     0s
   7   1.64018558e+10  1.64018558e+10  3.64e-12 9.09e-10  4.27e-08     0s
   8   1.64018558e+10  1.64018558e+10  3.64e-12 8.35e-12  4.27e-11     0s

Barrier solved model in 8 iterations and 0.02 seconds
Optimal objective 1.64018558e+10


Gurobi 8.1.1 (win64) logging started 09/10/19 13:00:56

Changed value of parameter logfile to solver.log
   Prev: gurobi.log  Default: 
Parameter BarConvTol unchanged
   Value: 1e-08  Min: 0.0  Max: 1.0  Default: 1e-08
Changed value of parameter crossover to 0
   Prev: -1  Min: -1  Max: 5  Default: -1
Parameter FeasibilityTol unchanged
   Value: 1e-06  Min: 1e-09  Max: 0.01  Default: 1e-06
Optimize a model with 430 rows, 399 columns and 892 nonzeros
Coefficient statistics:
  Matrix range     [1e-03, 2e+04]
  Objective range  [1e-02, 3e+05]
  Bounds range     [2e+03, 4e+05]
  RHS range        [1e+00, 3e+07]
Presolve removed 314 rows and 283 columns
Presolve time: 0.00s
Presolved: 116 rows, 116 columns, 420 nonzeros
Ordering time: 0.00s

Barrier statistics:
 Free vars  : 32
 AA' NZ     : 5.480e+02
 Factor NZ  : 1.159e+03
 Factor Ops : 1.291e+04 (less than 1 second per iteration)
 Threads    : 1

                  Objective                Residual
Iter       Primal          Dual         Primal    Dual     Compl     Time
   0   1.62401703e+11  1.64018558e+10  2.58e+06 1.87e-04  9.05e+05     0s
   1   2.50451478e+10  1.63961672e+10  1.46e+05 4.64e-03  7.81e+04     0s
   2   1.67226577e+10  1.64007763e+10  6.17e+02 3.41e-03  7.01e+03     0s
   3   1.64018558e+10  1.64017947e+10  9.09e-09 3.26e-04  3.25e+02     0s
   4   1.64018558e+10  1.64018558e+10  4.25e-09 4.15e-05  4.52e-01     0s
   5   1.64018558e+10  1.64018558e+10  2.04e-10 2.76e-05  1.92e-01     0s
   6   1.64018558e+10  1.64018558e+10  7.28e-12 5.70e-07  2.43e-03     0s
   7   1.64018558e+10  1.64018558e+10  3.64e-12 9.09e-10  4.27e-08     0s
   8   1.64018558e+10  1.64018558e+10  3.64e-12 8.35e-12  4.27e-11     0s

Barrier solved model in 8 iterations and 0.02 seconds
Optimal objective 1.64018558e+10


Gurobi 8.1.1 (win64) logging started 09/10/19 13:34:18

Changed value of parameter logfile to solver.log
   Prev: gurobi.log  Default: 
Parameter BarConvTol unchanged
   Value: 1e-08  Min: 0.0  Max: 1.0  Default: 1e-08
Changed value of parameter crossover to 0
   Prev: -1  Min: -1  Max: 5  Default: -1
Parameter FeasibilityTol unchanged
   Value: 1e-06  Min: 1e-09  Max: 0.01  Default: 1e-06
Optimize a model with 430 rows, 399 columns and 892 nonzeros
Coefficient statistics:
  Matrix range     [1e-03, 2e+04]
  Objective range  [1e-02, 3e+05]
  Bounds range     [2e+03, 4e+05]
  RHS range        [1e+00, 3e+07]
Presolve removed 314 rows and 283 columns
Presolve time: 0.02s
Presolved: 116 rows, 116 columns, 420 nonzeros
Ordering time: 0.00s

Barrier statistics:
 Free vars  : 32
 AA' NZ     : 5.480e+02
 Factor NZ  : 1.159e+03
 Factor Ops : 1.291e+04 (less than 1 second per iteration)
 Threads    : 1

                  Objective                Residual
Iter       Primal          Dual         Primal    Dual     Compl     Time
   0   1.62401703e+11  1.64018558e+10  2.58e+06 1.87e-04  9.05e+05     0s
   1   2.50451478e+10  1.63961672e+10  1.46e+05 4.64e-03  7.81e+04     0s
   2   1.67226577e+10  1.64007763e+10  6.17e+02 3.41e-03  7.01e+03     0s
   3   1.64018558e+10  1.64017947e+10  9.09e-09 3.26e-04  3.25e+02     0s
   4   1.64018558e+10  1.64018558e+10  4.25e-09 4.15e-05  4.52e-01     0s
   5   1.64018558e+10  1.64018558e+10  2.04e-10 2.76e-05  1.92e-01     0s
   6   1.64018558e+10  1.64018558e+10  7.28e-12 5.70e-07  2.43e-03     0s
   7   1.64018558e+10  1.64018558e+10  3.64e-12 9.09e-10  4.27e-08     0s
   8   1.64018558e+10  1.64018558e+10  3.64e-12 8.35e-12  4.27e-11     0s

Barrier solved model in 8 iterations and 0.02 seconds
Optimal objective 1.64018558e+10


Gurobi 8.1.1 (win64) logging started 09/10/19 13:45:10

Changed value of parameter logfile to solver.log
   Prev: gurobi.log  Default: 
Parameter BarConvTol unchanged
   Value: 1e-08  Min: 0.0  Max: 1.0  Default: 1e-08
Changed value of parameter crossover to 0
   Prev: -1  Min: -1  Max: 5  Default: -1
Parameter FeasibilityTol unchanged
   Value: 1e-06  Min: 1e-09  Max: 0.01  Default: 1e-06
Optimize a model with 430 rows, 399 columns and 892 nonzeros
Coefficient statistics:
  Matrix range     [1e-03, 2e+04]
  Objective range  [1e-02, 3e+05]
  Bounds range     [2e+03, 4e+05]
  RHS range        [1e+00, 3e+07]
Presolve removed 314 rows and 283 columns
Presolve time: 0.01s
Presolved: 116 rows, 116 columns, 420 nonzeros
Ordering time: 0.00s

Barrier statistics:
 Free vars  : 32
 AA' NZ     : 5.480e+02
 Factor NZ  : 1.159e+03
 Factor Ops : 1.291e+04 (less than 1 second per iteration)
 Threads    : 1

                  Objective                Residual
Iter       Primal          Dual         Primal    Dual     Compl     Time
   0   1.62401703e+11  1.64018558e+10  2.58e+06 1.87e-04  9.05e+05     0s
   1   2.50451478e+10  1.63961672e+10  1.46e+05 4.64e-03  7.81e+04     0s
   2   1.67226577e+10  1.64007763e+10  6.17e+02 3.41e-03  7.01e+03     0s
   3   1.64018558e+10  1.64017947e+10  9.09e-09 3.26e-04  3.25e+02     0s
   4   1.64018558e+10  1.64018558e+10  4.25e-09 4.15e-05  4.52e-01     0s
   5   1.64018558e+10  1.64018558e+10  2.04e-10 2.76e-05  1.92e-01     0s
   6   1.64018558e+10  1.64018558e+10  7.28e-12 5.70e-07  2.43e-03     0s
   7   1.64018558e+10  1.64018558e+10  3.64e-12 9.09e-10  4.27e-08     0s
   8   1.64018558e+10  1.64018558e+10  3.64e-12 8.35e-12  4.27e-11     0s

Barrier solved model in 8 iterations and 0.02 seconds
Optimal objective 1.64018558e+10


Gurobi 8.1.1 (win64) logging started 10/02/19 10:32:17

Changed value of parameter logfile to solver.log
   Prev: gurobi.log  Default: 
Parameter BarConvTol unchanged
   Value: 1e-08  Min: 0.0  Max: 1.0  Default: 1e-08
Changed value of parameter crossover to 0
   Prev: -1  Min: -1  Max: 5  Default: -1
Parameter FeasibilityTol unchanged
   Value: 1e-06  Min: 1e-09  Max: 0.01  Default: 1e-06
Optimize a model with 430 rows, 399 columns and 892 nonzeros
Coefficient statistics:
  Matrix range     [1e-03, 2e+04]
  Objective range  [1e-02, 3e+05]
  Bounds range     [2e+03, 4e+05]
  RHS range        [1e+00, 3e+07]
Presolve removed 314 rows and 283 columns
Presolve time: 0.00s
Presolved: 116 rows, 116 columns, 420 nonzeros
Ordering time: 0.00s

Barrier statistics:
 Free vars  : 32
 AA' NZ     : 5.480e+02
 Factor NZ  : 1.159e+03
 Factor Ops : 1.291e+04 (less than 1 second per iteration)
 Threads    : 1

                  Objective                Residual
Iter       Primal          Dual         Primal    Dual     Compl     Time
   0   1.62401703e+11  1.64018558e+10  2.58e+06 1.87e-04  9.05e+05     0s
   1   2.50451478e+10  1.63961672e+10  1.46e+05 4.64e-03  7.81e+04     0s
   2   1.67226577e+10  1.64007763e+10  6.17e+02 3.41e-03  7.01e+03     0s
   3   1.64018558e+10  1.64017947e+10  9.09e-09 3.26e-04  3.25e+02     0s
   4   1.64018558e+10  1.64018558e+10  4.25e-09 4.15e-05  4.52e-01     0s
   5   1.64018558e+10  1.64018558e+10  2.04e-10 2.76e-05  1.92e-01     0s
   6   1.64018558e+10  1.64018558e+10  7.28e-12 5.70e-07  2.43e-03     0s
   7   1.64018558e+10  1.64018558e+10  3.64e-12 9.09e-10  4.27e-08     0s
   8   1.64018558e+10  1.64018558e+10  3.64e-12 8.35e-12  4.27e-11     0s

Barrier solved model in 8 iterations and 0.01 seconds
Optimal objective 1.64018558e+10


Gurobi 8.1.1 (win64) logging started 10/08/19 11:30:52

Changed value of parameter logfile to solver.log
   Prev: gurobi.log  Default: 
Parameter BarConvTol unchanged
   Value: 1e-08  Min: 0.0  Max: 1.0  Default: 1e-08
Changed value of parameter crossover to 0
   Prev: -1  Min: -1  Max: 5  Default: -1
Parameter FeasibilityTol unchanged
   Value: 1e-06  Min: 1e-09  Max: 0.01  Default: 1e-06
Optimize a model with 430 rows, 399 columns and 892 nonzeros
Coefficient statistics:
  Matrix range     [1e-03, 2e+04]
  Objective range  [1e-02, 3e+05]
  Bounds range     [2e+03, 4e+05]
  RHS range        [1e+00, 3e+07]
Presolve removed 314 rows and 283 columns
Presolve time: 0.00s
Presolved: 116 rows, 116 columns, 420 nonzeros
Ordering time: 0.00s

Barrier statistics:
 Free vars  : 32
 AA' NZ     : 5.480e+02
 Factor NZ  : 1.159e+03
 Factor Ops : 1.291e+04 (less than 1 second per iteration)
 Threads    : 1

                  Objective                Residual
Iter       Primal          Dual         Primal    Dual     Compl     Time
   0   1.62401703e+11  1.64018558e+10  2.58e+06 1.87e-04  9.05e+05     0s
   1   2.50451478e+10  1.63961672e+10  1.46e+05 4.64e-03  7.81e+04     0s
   2   1.67226577e+10  1.64007763e+10  6.17e+02 3.41e-03  7.01e+03     0s
   3   1.64018558e+10  1.64017947e+10  9.09e-09 3.26e-04  3.25e+02     0s
   4   1.64018558e+10  1.64018558e+10  4.25e-09 4.15e-05  4.52e-01     0s
   5   1.64018558e+10  1.64018558e+10  2.04e-10 2.76e-05  1.92e-01     0s
   6   1.64018558e+10  1.64018558e+10  7.28e-12 5.70e-07  2.43e-03     0s
   7   1.64018558e+10  1.64018558e+10  3.64e-12 9.09e-10  4.27e-08     0s
   8   1.64018558e+10  1.64018558e+10  3.64e-12 8.35e-12  4.27e-11     0s

Barrier solved model in 8 iterations and 0.02 seconds
Optimal objective 1.64018558e+10


Gurobi 8.1.1 (win64) logging started 10/08/19 14:01:06

Changed value of parameter logfile to solver.log
   Prev: gurobi.log  Default: 
Parameter BarConvTol unchanged
   Value: 1e-08  Min: 0.0  Max: 1.0  Default: 1e-08
Changed value of parameter crossover to 0
   Prev: -1  Min: -1  Max: 5  Default: -1
Parameter FeasibilityTol unchanged
   Value: 1e-06  Min: 1e-09  Max: 0.01  Default: 1e-06
Optimize a model with 431 rows, 399 columns and 922 nonzeros
Coefficient statistics:
  Matrix range     [1e-03, 2e+04]
  Objective range  [1e-02, 3e+05]
  Bounds range     [2e+03, 4e+05]
  RHS range        [1e+00, 8e+07]
Presolve removed 314 rows and 212 columns
Presolve time: 0.01s
Presolved: 117 rows, 187 columns, 587 nonzeros
Ordering time: 0.00s

Barrier statistics:
 Free vars  : 32
 AA' NZ     : 5.960e+02
 Factor NZ  : 1.294e+03
 Factor Ops : 1.609e+04 (less than 1 second per iteration)
 Threads    : 1

                  Objective                Residual
Iter       Primal          Dual         Primal    Dual     Compl     Time
   0   4.77822851e+16 -1.16538015e+15  1.16e+09 6.62e+07  1.39e+16     0s
   1   2.09559317e+15 -3.80995744e+16  6.54e+07 1.36e+00  9.10e+14     0s
   2   3.83584550e+14 -5.50207551e+14  3.10e+07 1.37e-01  4.04e+14     0s
   3   2.07508698e+12 -7.84364236e+15  2.08e+05 6.22e-01  2.64e+13     0s
   4   5.19025797e+11 -1.16343395e+14  2.39e+03 4.66e-03  4.25e+11     0s
   5   1.06114614e+11 -1.03840243e+13  2.15e+01 4.53e-04  3.20e+10     0s
   6   8.32596956e+10 -1.85472698e+12  1.10e-01 1.31e-04  5.86e+09     0s
   7   4.57096794e+10 -5.61020958e+10  4.86e-04 4.69e-05  3.08e+08     0s
   8   1.74583090e+10  1.51033383e+10  2.10e-06 4.04e-07  7.11e+06     0s
   9   1.64037875e+10  1.63961766e+10  1.64e-11 3.64e-08  2.30e+04     0s
  10   1.64018559e+10  1.64018557e+10  3.64e-12 6.01e-08  4.46e-01     0s
  11   1.64018558e+10  1.64018558e+10  3.64e-12 7.95e-06  1.00e-01     0s
  12   1.64018558e+10  1.64018558e+10  7.28e-12 2.06e-07  7.03e-03     0s
  13   1.64018558e+10  1.64018558e+10  1.82e-12 8.69e-08  9.36e-06     0s
  14   1.64018558e+10  1.64018558e+10  3.64e-12 4.66e-10  9.36e-09     0s

Barrier solved model in 14 iterations and 0.03 seconds
Optimal objective 1.64018558e+10


Gurobi 8.1.1 (win64) logging started 10/08/19 14:20:54

Changed value of parameter logfile to solver.log
   Prev: gurobi.log  Default: 
Parameter BarConvTol unchanged
   Value: 1e-08  Min: 0.0  Max: 1.0  Default: 1e-08
Changed value of parameter crossover to 0
   Prev: -1  Min: -1  Max: 5  Default: -1
Parameter FeasibilityTol unchanged
   Value: 1e-06  Min: 1e-09  Max: 0.01  Default: 1e-06
Optimize a model with 430 rows, 399 columns and 892 nonzeros
Coefficient statistics:
  Matrix range     [1e-03, 2e+04]
  Objective range  [1e-02, 3e+05]
  Bounds range     [2e+03, 4e+05]
  RHS range        [1e+00, 3e+07]
Presolve removed 314 rows and 283 columns
Presolve time: 0.00s
Presolved: 116 rows, 116 columns, 420 nonzeros
Ordering time: 0.00s

Barrier statistics:
 Free vars  : 32
 AA' NZ     : 5.480e+02
 Factor NZ  : 1.159e+03
 Factor Ops : 1.291e+04 (less than 1 second per iteration)
 Threads    : 1

                  Objective                Residual
Iter       Primal          Dual         Primal    Dual     Compl     Time
   0   1.62401703e+11  1.64018558e+10  2.58e+06 1.87e-04  9.05e+05     0s
   1   2.50451478e+10  1.63961672e+10  1.46e+05 4.64e-03  7.81e+04     0s
   2   1.67226577e+10  1.64007763e+10  6.17e+02 3.41e-03  7.01e+03     0s
   3   1.64018558e+10  1.64017947e+10  9.09e-09 3.26e-04  3.25e+02     0s
   4   1.64018558e+10  1.64018558e+10  4.25e-09 4.15e-05  4.52e-01     0s
   5   1.64018558e+10  1.64018558e+10  2.04e-10 2.76e-05  1.92e-01     0s
   6   1.64018558e+10  1.64018558e+10  7.28e-12 5.70e-07  2.43e-03     0s
   7   1.64018558e+10  1.64018558e+10  3.64e-12 9.09e-10  4.27e-08     0s
   8   1.64018558e+10  1.64018558e+10  3.64e-12 8.35e-12  4.27e-11     0s

Barrier solved model in 8 iterations and 0.01 seconds
Optimal objective 1.64018558e+10


Gurobi 8.1.1 (win64) logging started 10/09/19 13:07:58

Changed value of parameter logfile to solver.log
   Prev: gurobi.log  Default: 
Parameter BarConvTol unchanged
   Value: 1e-08  Min: 0.0  Max: 1.0  Default: 1e-08
Changed value of parameter crossover to 0
   Prev: -1  Min: -1  Max: 5  Default: -1
Parameter FeasibilityTol unchanged
   Value: 1e-06  Min: 1e-09  Max: 0.01  Default: 1e-06
Optimize a model with 430 rows, 399 columns and 892 nonzeros
Coefficient statistics:
  Matrix range     [1e-03, 2e+04]
  Objective range  [1e-02, 3e+05]
  Bounds range     [2e+03, 4e+05]
  RHS range        [1e+00, 3e+07]
Presolve removed 314 rows and 283 columns
Presolve time: 0.01s
Presolved: 116 rows, 116 columns, 420 nonzeros
Ordering time: 0.00s

Barrier statistics:
 Free vars  : 32
 AA' NZ     : 5.480e+02
 Factor NZ  : 1.159e+03
 Factor Ops : 1.291e+04 (less than 1 second per iteration)
 Threads    : 1

                  Objective                Residual
Iter       Primal          Dual         Primal    Dual     Compl     Time
   0   1.62401703e+11  1.64018558e+10  2.58e+06 1.87e-04  9.05e+05     0s
   1   2.50451478e+10  1.63961672e+10  1.46e+05 4.64e-03  7.81e+04     0s
   2   1.67226577e+10  1.64007763e+10  6.17e+02 3.41e-03  7.01e+03     0s
   3   1.64018558e+10  1.64017947e+10  9.09e-09 3.26e-04  3.25e+02     0s
   4   1.64018558e+10  1.64018558e+10  4.25e-09 4.15e-05  4.52e-01     0s
   5   1.64018558e+10  1.64018558e+10  2.04e-10 2.76e-05  1.92e-01     0s
   6   1.64018558e+10  1.64018558e+10  7.28e-12 5.70e-07  2.43e-03     0s
   7   1.64018558e+10  1.64018558e+10  3.64e-12 9.09e-10  4.27e-08     0s
   8   1.64018558e+10  1.64018558e+10  3.64e-12 8.35e-12  4.27e-11     0s

Barrier solved model in 8 iterations and 0.03 seconds
Optimal objective 1.64018558e+10


Gurobi 8.1.1 (win64) logging started 10/09/19 13:13:02

Changed value of parameter logfile to solver.log
   Prev: gurobi.log  Default: 
Parameter BarConvTol unchanged
   Value: 1e-08  Min: 0.0  Max: 1.0  Default: 1e-08
Changed value of parameter crossover to 0
   Prev: -1  Min: -1  Max: 5  Default: -1
Parameter FeasibilityTol unchanged
   Value: 1e-06  Min: 1e-09  Max: 0.01  Default: 1e-06
Optimize a model with 430 rows, 399 columns and 892 nonzeros
Coefficient statistics:
  Matrix range     [1e-03, 2e+04]
  Objective range  [1e-02, 3e+05]
  Bounds range     [2e+03, 4e+05]
  RHS range        [1e+00, 3e+07]
Presolve removed 314 rows and 283 columns
Presolve time: 0.00s
Presolved: 116 rows, 116 columns, 420 nonzeros
Ordering time: 0.00s

Barrier statistics:
 Free vars  : 32
 AA' NZ     : 5.480e+02
 Factor NZ  : 1.159e+03
 Factor Ops : 1.291e+04 (less than 1 second per iteration)
 Threads    : 1

                  Objective                Residual
Iter       Primal          Dual         Primal    Dual     Compl     Time
   0   1.62401703e+11  1.64018558e+10  2.58e+06 1.87e-04  9.05e+05     0s
   1   2.50451478e+10  1.63961672e+10  1.46e+05 4.64e-03  7.81e+04     0s
   2   1.67226577e+10  1.64007763e+10  6.17e+02 3.41e-03  7.01e+03     0s
   3   1.64018558e+10  1.64017947e+10  9.09e-09 3.26e-04  3.25e+02     0s
   4   1.64018558e+10  1.64018558e+10  4.25e-09 4.15e-05  4.52e-01     0s
   5   1.64018558e+10  1.64018558e+10  2.04e-10 2.76e-05  1.92e-01     0s
   6   1.64018558e+10  1.64018558e+10  7.28e-12 5.70e-07  2.43e-03     0s
   7   1.64018558e+10  1.64018558e+10  3.64e-12 9.09e-10  4.27e-08     0s
   8   1.64018558e+10  1.64018558e+10  3.64e-12 8.35e-12  4.27e-11     0s

Barrier solved model in 8 iterations and 0.01 seconds
Optimal objective 1.64018558e+10


Gurobi 8.1.1 (win64) logging started 10/09/19 13:37:42

Changed value of parameter logfile to solver.log
   Prev: gurobi.log  Default: 
Parameter BarConvTol unchanged
   Value: 1e-08  Min: 0.0  Max: 1.0  Default: 1e-08
Changed value of parameter crossover to 0
   Prev: -1  Min: -1  Max: 5  Default: -1
Parameter FeasibilityTol unchanged
   Value: 1e-06  Min: 1e-09  Max: 0.01  Default: 1e-06
Optimize a model with 430 rows, 399 columns and 892 nonzeros
Coefficient statistics:
  Matrix range     [1e-03, 2e+04]
  Objective range  [1e-02, 3e+05]
  Bounds range     [2e+03, 4e+05]
  RHS range        [1e+00, 3e+07]
Presolve removed 314 rows and 283 columns
Presolve time: 0.00s
Presolved: 116 rows, 116 columns, 420 nonzeros
Ordering time: 0.00s

Barrier statistics:
 Free vars  : 32
 AA' NZ     : 5.480e+02
 Factor NZ  : 1.159e+03
 Factor Ops : 1.291e+04 (less than 1 second per iteration)
 Threads    : 1

                  Objective                Residual
Iter       Primal          Dual         Primal    Dual     Compl     Time
   0   1.62401703e+11  1.64018558e+10  2.58e+06 1.87e-04  9.05e+05     0s
   1   2.50451478e+10  1.63961672e+10  1.46e+05 4.64e-03  7.81e+04     0s
   2   1.67226577e+10  1.64007763e+10  6.17e+02 3.41e-03  7.01e+03     0s
   3   1.64018558e+10  1.64017947e+10  9.09e-09 3.26e-04  3.25e+02     0s
   4   1.64018558e+10  1.64018558e+10  4.25e-09 4.15e-05  4.52e-01     0s
   5   1.64018558e+10  1.64018558e+10  2.04e-10 2.76e-05  1.92e-01     0s
   6   1.64018558e+10  1.64018558e+10  7.28e-12 5.70e-07  2.43e-03     0s
   7   1.64018558e+10  1.64018558e+10  3.64e-12 9.09e-10  4.27e-08     0s
   8   1.64018558e+10  1.64018558e+10  3.64e-12 8.35e-12  4.27e-11     0s

Barrier solved model in 8 iterations and 0.02 seconds
Optimal objective 1.64018558e+10


Gurobi 8.1.1 (win64) logging started 10/09/19 13:38:47

Changed value of parameter logfile to solver.log
   Prev: gurobi.log  Default: 
Parameter BarConvTol unchanged
   Value: 1e-08  Min: 0.0  Max: 1.0  Default: 1e-08
Changed value of parameter crossover to 0
   Prev: -1  Min: -1  Max: 5  Default: -1
Parameter FeasibilityTol unchanged
   Value: 1e-06  Min: 1e-09  Max: 0.01  Default: 1e-06
Optimize a model with 431 rows, 399 columns and 922 nonzeros
Coefficient statistics:
  Matrix range     [1e-03, 2e+04]
  Objective range  [1e-02, 3e+05]
  Bounds range     [2e+03, 4e+05]
  RHS range        [1e+00, 3e+07]
Presolve removed 314 rows and 212 columns
Presolve time: 0.00s
Presolved: 117 rows, 187 columns, 587 nonzeros
Ordering time: 0.00s

Barrier statistics:
 Free vars  : 32
 AA' NZ     : 5.960e+02
 Factor NZ  : 1.294e+03
 Factor Ops : 1.609e+04 (less than 1 second per iteration)
 Threads    : 1

                  Objective                Residual
Iter       Primal          Dual         Primal    Dual     Compl     Time
   0   1.85590188e+16 -5.87525378e+14  4.50e+08 6.62e+07  5.40e+15     0s
   1   8.14582147e+14 -1.50345950e+16  2.54e+07 5.28e-01  3.54e+14     0s
   2   1.49004053e+14 -4.48746538e+14  1.20e+07 5.35e-02  1.57e+14     0s
   3   9.14307437e+11 -3.25654858e+15  7.33e+04 2.41e-01  1.09e+13     0s
   4   2.34136710e+11 -5.02761820e+13  6.35e+02 1.84e-03  1.68e+11     0s
   5   9.85356583e+10 -3.70908544e+12  1.72e-01 4.12e-04  1.15e+10     0s
   6   6.65202246e+10 -5.72813609e+11  1.04e-03 1.16e-04  1.93e+09     0s
   7   2.56027305e+10 -2.28483136e+10  9.36e-05 2.47e-05  1.46e+08     0s
   8   1.66235237e+10  1.49362670e+10  2.45e-06 9.84e-07  5.10e+06     0s
   9   1.64032391e+10  1.63973547e+10  5.23e-09 1.07e-07  1.78e+04     0s
  10   1.64018559e+10  1.64018557e+10  3.64e-12 7.00e-08  4.44e-01     0s
  11   1.64018558e+10  1.64018558e+10  7.28e-12 5.48e-06  1.53e-01     0s
  12   1.64018558e+10  1.64018558e+10  1.82e-12 2.64e-08  1.21e-02     0s
  13   1.64018558e+10  1.64018558e+10  3.64e-12 2.05e-08  2.30e-05     0s
  14   1.64018558e+10  1.64018558e+10  3.64e-12 2.98e-08  2.30e-08     0s
  15   1.64018558e+10  1.64018558e+10  1.82e-12 2.33e-10  3.71e-14     0s

Barrier solved model in 15 iterations and 0.01 seconds
Optimal objective 1.64018558e+10

